(set-logic QF_UF)
(declare-fun A0 () Bool)
(declare-fun A1 () Bool)
(declare-fun A2 () Bool)
(declare-fun A3 () Bool)
(declare-fun A4 () Bool)
(declare-fun A5 () Bool)
(declare-fun A6 () Bool)
(declare-fun A7 () Bool)
(declare-fun A8 () Bool)
(declare-fun A9 () Bool)
(declare-fun A10 () Bool)
(declare-fun A11 () Bool)
(declare-fun A12 () Bool)
(declare-fun A13 () Bool)
(declare-fun A14 () Bool)
(declare-fun A15 () Bool)
(declare-fun A16 () Bool)
(declare-fun A17 () Bool)
(declare-fun A18 () Bool)
(declare-fun A19 () Bool)
(declare-fun A20 () Bool)
(declare-fun A21 () Bool)
(declare-fun A22 () Bool)
(declare-fun A23 () Bool)
(declare-fun A24 () Bool)
(assert (let ((.def_0 (or A24 A17))) (let ((.def_1 (not A6))) (let ((.def_2 (not A22))) (let ((.def_3 (and .def_2 .def_1))) (let ((.def_4 (or .def_3 .def_0))) (let ((.def_5 (not .def_4))) (let ((.def_6 (not A15))) (let ((.def_7 (and A13 .def_6))) (let ((.def_8 (not A12))) (let ((.def_9 (= .def_8 .def_8))) (let ((.def_10 (and .def_9 .def_7))) (let ((.def_11 (and .def_10 .def_5))) (let ((.def_12 (not .def_11))) (let ((.def_13 (not A13))) (let ((.def_14 (not A19))) (let ((.def_15 (or .def_14 .def_13))) (let ((.def_16 (not .def_15))) (let ((.def_17 (and A4 A4))) (let ((.def_18 (not .def_17))) (let ((.def_19 (or .def_18 .def_16))) (let ((.def_20 (or .def_13 A9))) (let ((.def_21 (or A22 A6))) (let ((.def_22 (not .def_21))) (let ((.def_23 (and .def_22 .def_20))) (let ((.def_24 (not .def_23))) (let ((.def_25 (and .def_24 .def_19))) (let ((.def_26 (or .def_25 .def_12))) (let ((.def_27 (not A17))) (let ((.def_28 (and .def_27 A12))) (let ((.def_29 (not .def_28))) (let ((.def_30 (or A16 A17))) (let ((.def_31 (or .def_30 .def_29))) (let ((.def_32 (not .def_31))) (let ((.def_33 (or A14 A5))) (let ((.def_34 (not A11))) (let ((.def_35 (and .def_6 .def_34))) (let ((.def_36 (and .def_35 .def_33))) (let ((.def_37 (and .def_36 .def_32))) (let ((.def_38 (not .def_37))) (let ((.def_39 (not A18))) (let ((.def_40 (not A21))) (let ((.def_41 (and .def_40 .def_39))) (let ((.def_42 (not .def_41))) (let ((.def_43 (or A11 A3))) (let ((.def_44 (or .def_43 .def_42))) (let ((.def_45 (not .def_44))) (let ((.def_46 (not A9))) (let ((.def_47 (not A23))) (let ((.def_48 (and .def_47 .def_46))) (let ((.def_49 (not .def_48))) (let ((.def_50 (not A1))) (let ((.def_51 (or .def_50 A20))) (let ((.def_52 (and .def_51 .def_49))) (let ((.def_53 (and .def_52 .def_45))) (let ((.def_54 (not .def_53))) (let ((.def_55 (and .def_54 .def_38))) (let ((.def_56 (not .def_55))) (let ((.def_57 (or .def_56 .def_26))) (let ((.def_58 (not .def_57))) (let ((.def_59 (or A11 A7))) (let ((.def_60 (not A3))) (let ((.def_61 (and A20 .def_60))) (let ((.def_62 (not .def_61))) (let ((.def_63 (or .def_62 .def_59))) (let ((.def_64 (and .def_34 .def_46))) (let ((.def_65 (not A24))) (let ((.def_66 (and .def_60 .def_65))) (let ((.def_67 (not .def_66))) (let ((.def_68 (and .def_67 .def_64))) (let ((.def_69 (and .def_68 .def_63))) (let ((.def_70 (not .def_69))) (let ((.def_71 (not A16))) (let ((.def_72 (and A5 .def_71))) (let ((.def_73 (not A8))) (let ((.def_74 (not A0))) (let ((.def_75 (or .def_74 .def_73))) (let ((.def_76 (or .def_75 .def_72))) (let ((.def_77 (not A2))) (let ((.def_78 (and A14 .def_77))) (let ((.def_79 (not .def_78))) (let ((.def_80 (and A11 .def_46))) (let ((.def_81 (and .def_80 .def_79))) (let ((.def_82 (or .def_81 .def_76))) (let ((.def_83 (or .def_82 .def_70))) (let ((.def_84 (not A4))) (let ((.def_85 (= A23 .def_84))) (let ((.def_86 (or A21 .def_8))) (let ((.def_87 (or .def_86 .def_85))) (let ((.def_88 (and A18 A4))) (let ((.def_89 (not .def_88))) (let ((.def_90 (or A0 A5))) (let ((.def_91 (or .def_90 .def_89))) (let ((.def_92 (or .def_91 .def_87))) (let ((.def_93 (not .def_92))) (let ((.def_94 (not A10))) (let ((.def_95 (or .def_94 A13))) (let ((.def_96 (= .def_94 A8))) (let ((.def_97 (or .def_96 .def_95))) (let ((.def_98 (not .def_97))) (let ((.def_99 (and .def_60 .def_6))) (let ((.def_100 (not .def_99))) (let ((.def_101 (and A19 .def_60))) (let ((.def_102 (not .def_101))) (let ((.def_103 (or .def_102 .def_100))) (let ((.def_104 (not .def_103))) (let ((.def_105 (and .def_104 .def_98))) (let ((.def_106 (and .def_105 .def_93))) (let ((.def_107 (or .def_106 .def_83))) (let ((.def_108 (not .def_107))) (let ((.def_109 (and .def_108 .def_58))) .def_109)))))))))))))))))))))))))))))))))))))))))))))))))))))))))))))))))))))))))))))))))))))))))))))))))))))))))))))))
(check-sat)
